;; Mutation-Based Equivalence Benchmark
;; Source:     AutomatArk / instance15923.smt2
;; Mutations:  range_expand_hi
;; Status:     sat
;;
;; Original regex vs mutated regex
;; Equivalence check: unsat ⟺ L(R1) = L(R2)

(set-info :smt-lib-version 2.6)
(set-info :category "mutation")
(set-info :status sat)
(set-logic QF_S)


;; R1: original
;; R2: mutated (range_expand_hi)
(assert
  (not
    (=
      (re.++ (str.to_re "Login") (re.union (str.to_re " ") (str.to_re "\u{9}") (str.to_re "\u{a}") (str.to_re "\u{c}") (str.to_re "\u{d}")) (str.to_re "Host:") (re.+ (re.union (re.range "0" "9") (re.range "A" "Z") (re.range "a" "z") (str.to_re "_"))) (str.to_re "Host:iz=iMeshBar%3f/bar_pl/chk_bar.fcgi\u{a}"))
      (re.++ (str.to_re "Login") (re.union (str.to_re " ") (str.to_re "\u{9}") (str.to_re "\u{a}") (str.to_re "\u{c}") (str.to_re "\u{d}")) (str.to_re "Host:") (re.+ (re.union (re.range "0" "9") (re.range "A" "Z") (re.range "a" "{") (str.to_re "_"))) (str.to_re "Host:iz=iMeshBar%3f/bar_pl/chk_bar.fcgi\u{a}")))))

(check-sat)
(exit)
